language ESSENCE' 1.0
letting lastdx=88
letting cage be [
[39,16,6,16,5,15,5,14,5,13,5],
[16,1,2,0,0, 0,0, 0,0, 0,0],
[6,4,11,4,12,5,12,0,0, 0,0],
[11,5,4,5,3,0,0, 0,0, 0,0],
[31,9,9,10,9,11,9,0,0, 0,0],
[56,16,3,16,4,15,4,14,4,14,3],
[36,4,1,5,1,5,2,0,0, 0,0],
[27,7,3,8,3,0,0, 0,0, 0,0],
[34,3,5,4,5,4,6,5,6,0,0],
[7,13,2,0,0, 0,0, 0,0, 0,0],
[13,4,3,4,2,0,0, 0,0, 0,0],
[11,13,6,0,0, 0,0, 0,0, 0,0],
[4,7,9,0,0, 0,0, 0,0, 0,0],
[60,6,15,5,15,4,15,3,15,3,16],
[21,13,9,13,10,14,10,0,0, 0,0],
[32,15,16,14,16,14,15,13,15,13,16],
[8,11,13,0,0, 0,0, 0,0, 0,0],
[56,6,6,6,5,5,5,6,4,6,3],
[10,3,13,0,0, 0,0, 0,0, 0,0],
[30,10,7,10,6,10,5,11,5,0,0],
[3,14,6,0,0, 0,0, 0,0, 0,0],
[29,9,3,10,3,0,0, 0,0, 0,0],
[5,5,7,0,0, 0,0, 0,0, 0,0],
[33,2,13,2,14,1,14,1,15,2,15],
[19,11,1,11,2,11,3,11,4,0,0],
[39,13,12,13,13,13,14,12,14,0,0],
[55,10,12,10,13,9,13,8,13,0,0],
[30,16,1,15,1,14,1,14,2,0,0],
[14,13,3,12,3,0,0, 0,0, 0,0],
[42,14,14,15,14,15,15,16,15,16,16],
[53,12,15,12,16,11,16,11,15,0,0],
[30,2,8,1,8,1,7,1,6,0,0],
[16,13,1,0,0, 0,0, 0,0, 0,0],
[10,2,3,0,0, 0,0, 0,0, 0,0],
[16,11,11,11,10,0,0, 0,0, 0,0],
[13,6,10,0,0, 0,0, 0,0, 0,0],
[23,2,1,1,1,0,0, 0,0, 0,0],
[6,3,7,0,0, 0,0, 0,0, 0,0],
[42,3,3,3,2,2,2,3,1,0,0],
[34,2,6,2,7,3,6,0,0, 0,0],
[46,9,8,9,7,9,6,9,5,8,5],
[13,8,9,8,8,0,0, 0,0, 0,0],
[17,4,4,3,4,2,4,1,4,1,3],
[50,3,10,3,11,3,12,2,12,2,11],
[18,15,2,15,3,16,2,0,0, 0,0],
[9,15,11,0,0, 0,0, 0,0, 0,0],
[45,13,7,12,7,12,8,11,8,10,8],
[6,11,12,0,0, 0,0, 0,0, 0,0],
[21,9,16,8,16,0,0, 0,0, 0,0],
[28,6,1,7,1,8,1,8,2,0,0],
[12,6,7,0,0, 0,0, 0,0, 0,0],
[15,10,11,0,0, 0,0, 0,0, 0,0],
[17,1,16,2,16,0,0, 0,0, 0,0],
[34,7,7,7,6,8,6,8,7,0,0],
[25,11,14,10,14,10,15,10,16,0,0],
[17,12,2,12,1,0,0, 0,0, 0,0],
[46,15,8,15,7,14,7,15,6,0,0],
[40,11,6,11,7,12,6,12,5,0,0],
[22,9,4,10,4,0,0, 0,0, 0,0],
[31,15,9,16,9,0,0, 0,0, 0,0],
[32,3,14,4,14,5,14,5,13,4,13],
[16,14,13,0,0, 0,0, 0,0, 0,0],
[23,8,11,8,12,0,0, 0,0, 0,0],
[23,10,1,9,1,9,2,10,2,0,0],
[16,2,9,3,9,3,8,0,0, 0,0],
[9,6,2,7,2,0,0, 0,0, 0,0],
[16,8,14,0,0, 0,0, 0,0, 0,0],
[29,8,10,7,10,7,11,7,12,7,13],
[21,9,10,10,10,0,0, 0,0, 0,0],
[26,16,12,15,12,0,0, 0,0, 0,0],
[4,12,11,0,0, 0,0, 0,0, 0,0],
[11,1,5,2,5,0,0, 0,0, 0,0],
[13,1,9,0,0, 0,0, 0,0, 0,0],
[45,1,10,2,10,1,11,1,12,1,13],
[18,4,16,5,16,6,16,0,0, 0,0],
[27,6,13,6,14,7,14,0,0, 0,0],
[28,7,4,7,5,8,4,0,0, 0,0],
[12,7,15,7,16,0,0, 0,0, 0,0],
[8,8,15,0,0, 0,0, 0,0, 0,0],
[15,9,11,9,12,0,0, 0,0, 0,0],
[5,9,14,9,15,0,0, 0,0, 0,0],
[21,12,4,13,4,0,0, 0,0, 0,0],
[4,12,9,12,10,0,0, 0,0, 0,0],
[14,12,12,12,13,0,0, 0,0, 0,0],
[1,13,11,0,0, 0,0, 0,0, 0,0],
[13,14,11,14,12,0,0, 0,0, 0,0],
[17,15,10,16,10,16,11,0,0, 0,0],
[22,15,13,16,13,16,14,0,0, 0,0],
[8,16,7,16,8,0,0, 0,0, 0,0]
]
